decision_x1=[0,4];
decision_x2=[0,4];
decision_x3=[0,4];
decision_x4=[0,4];
random_y1=[0,4];
random_y2=[0,4];
constraint_x2_x1=[
0,1,8.8|
0,2,3|
0,3,2.4|
0,4,2|
1,0,7.1|
1,2,0.84|
1,3,0.35|
1,4,6.4|
2,0,7.7|
2,1,8.3|
2,3,9.9|
2,4,0.35|
3,0,7.5|
3,1,9.2|
3,2,9.7|
3,4,3.2|
4,0,9.8|
4,1,6.1|
4,2,4.2|
4,3,2.7|
];
constraint_x3_x2=[
0,1,3.4|
0,2,1.6|
0,3,4.2|
0,4,5.3|
1,0,7.4|
1,2,2|
1,3,9.3|
1,4,2.9|
2,0,0.095|
2,1,2.8|
2,3,9.8|
2,4,2.3|
3,0,8.7|
3,1,0.13|
3,2,0.23|
3,4,3.1|
4,0,6.1|
4,1,9.7|
4,2,2.5|
4,3,1.1|
];
constraint_x4_x3=[
0,1,2.8|
0,2,0.94|
0,3,7|
0,4,10|
1,0,0.33|
1,2,5.7|
1,3,6.3|
1,4,3.1|
2,0,5.9|
2,1,7.8|
2,3,6|
2,4,5.5|
3,0,5|
3,1,8.7|
3,2,5.9|
3,4,6.1|
4,0,2.8|
4,1,8.9|
4,2,3.3|
4,3,6.1|
];
constraint_x1_y1=[
0,0,5.5|
0,1,1.1|
0,2,8.7|
0,3,4.6|
0,4,2.1|
1,0,5.2|
1,1,6.3|
1,2,8.1|
1,3,7.9|
1,4,4|
2,0,2.7|
2,1,6.4|
2,2,3.3|
2,3,5.6|
2,4,3.5|
3,0,2.3|
3,1,3.6|
3,2,2.8|
3,3,1.2|
3,4,9.5|
4,0,6.4|
4,1,9.5|
4,2,2.3|
4,3,4.6|
4,4,5.3|
];
constraint_x2_y2=[
0,0,5.8|
0,1,0.29|
0,2,2.7|
0,3,4.4|
0,4,0.34|
1,0,8|
1,1,0.67|
1,2,1.5|
1,3,1.4|
1,4,9.6|
2,0,9.9|
2,1,7.7|
2,2,2.6|
2,3,7.2|
2,4,5.8|
3,0,7|
3,1,2.1|
3,2,0.5|
3,3,9.4|
3,4,6.5|
4,0,1.7|
4,1,2.5|
4,2,5|
4,3,1.9|
4,4,2.1|
];
initial_distribution_y1=[0.24,0.32,0.26,0.03,0.15];
initial_distribution_y2=[0.22,0.051,0.15,0.3,0.28];
transition_y1=[
0.21,0.16,0.21,0.31,0.1|
0.095,0.29,0.24,0.061,0.32|
0.14,0.089,0.36,0.31,0.11|
0.13,0.12,0.092,0.38,0.29|
0.25,0.11,0.073,0.31,0.26|
];
transition_y2=[
0.15,0.17,0.26,0.19,0.23|
0.26,0.27,0.081,0.21,0.18|
0.31,0.11,0.32,0.021,0.24|
0.18,0.24,0.072,0.16,0.34|
0.23,0.082,0.31,0.24,0.14|
];
